c turning on binary mode checking
c parsing input formula with 259840 variables and 1039929 clauses
c finished parsing, read 23502897 bytes from proof file
c detected empty clause; start verification via backward checking
c 12098 of 1039929 clauses in core                            
c 11989 of 610107 lemmas in core using 120627 resolution steps
c 0 RAT lemmas in core; 983 redundant literals in core lemmas
s VERIFIED
c verification time: 2.146 seconds
